NAME: I1837-n30-k5
COMMENT : (Fake et al, No of trucks: 5, Optimal value: )
TYPE : CVRP
DIMENSION : 30
EDGE_WEIGHT_TYPE : EUC_2D
CAPACITY : 40
NODE_COORD_SECTION
1 953 157
2 864 334
3 700 505
4 535 163
5 515 897
6 157 208
7 41 326
8 928 282
9 690 605
10 894 8
11 173 192
12 321 594
13 681 750
14 392 663
15 632 453
16 61 491
17 396 643
18 317 290
19 16 217
20 172 819
21 320 771
22 341 222
23 216 961
24 878 392
25 995 29
26 679 357
27 159 956
28 876 515
29 7 22
30 517 489
DEMAND_SECTION
1 0
2 6
3 10
4 7
5 4
6 3
7 10
8 9
9 11
10 2
11 2
12 4
13 9
14 1
15 6
16 1
17 11
18 8
19 9
20 7
21 4
22 3
23 10
24 5
25 1
26 11
27 2
28 2
29 2
30 1
DEPOT_SECTION
 1
 -1
 EOF 